%chk=LR19a_655_ox
%nproc=32
%mem=100gb
# opt freq m062x/def2tzvp pop=(full,nbo)

Title Card Required

 0 1
P         -0.0216648020        0.2507847306       -0.4657958494
O          0.6917948767        1.4310932450        0.3926255016
N         -1.5951740422        0.3294185131        0.1285990815
N          0.5525200162       -1.1829844632        0.1627890385
O          0.1727143299        0.4088606721       -1.9134589947
C          1.6803257164        2.2369195080       -0.2302343111
C         -2.4198269660       -0.7462819999       -0.4057564837
C         -2.2569065968        1.5874166417        0.4526483335
C          0.5129616111       -1.3180310117        1.6084384620
C          1.3634586891       -2.1033857045       -0.6234720288
C          3.0248726756        2.0076162685        0.3870130874
H          1.3873375699        3.2852229446       -0.0744705706
H          1.7002609591        2.0282318832       -1.3050358795
C         -3.4439012025       -1.2276804044        0.6245811259
H         -1.7158871458       -1.5634380953       -0.5968407566
C         -3.0926141646       -0.3981161376       -1.7337113541
C         -1.9806944444        2.7049026940       -0.5536255390
C         -1.8995822006        2.0215860011        1.8747696758
H         -3.3324692485        1.3829795499        0.4316347968
H         -0.1351465844       -0.5017608246        1.9437938042
C          1.8857116661       -1.1376051071        2.2576279513
C         -0.1166569526       -2.6450723933        2.0373515563
C          0.5336535211       -2.7417624786       -1.7356937611
H          1.6878540242       -2.8961372560        0.0597152960
C          2.6076585275       -1.4326742744       -1.2043846335
C          4.1133565788        1.7080027671       -0.2953602903
H          3.0495561191        2.1072597260        1.4646097950
H          4.0953949586        1.6049731917       -1.3674978732
H          5.0656896188        1.5613448430        0.1857216235
H         -2.9714358702       -1.3509062168        1.5954529048
H         -3.8580856186       -2.1829272821        0.3108590875
H         -4.2658360879       -0.5232982491        0.7281735661
H         -3.8297272063        0.3918821119       -1.6080151389
H         -3.5938255773       -1.2758097427       -2.1355319907
H         -2.3383004112       -0.0696665835       -2.4434571318
H         -2.6447566767        3.5470559980       -0.3654079418
H         -2.1434666140        2.3478169872       -1.5669114541
H         -0.9549366206        3.0489341639       -0.4748431842
H         -2.4423606742        2.9278467911        2.1346406786
H         -0.8343158785        2.2121415592        1.9546729606
H         -2.1679657721        1.2395269149        2.5812591564
H          2.3210177202       -0.1923191811        1.9455458218
H          2.5619086435       -1.9419744566        1.9763265787
H          1.7848274329       -1.1368938157        3.3404986335
H         -1.0554627537       -2.8045862043        1.5148735332
H         -0.3093939565       -2.6307778310        3.1073483076
H          0.5434744018       -3.4827228246        1.8240254772
H          1.1485535976       -3.4300505240       -2.3110657315
H          0.1566214274       -1.9682947736       -2.3971289300
H         -0.3056185161       -3.2941341237       -1.3179455006
H          3.1806356888       -0.9446999975       -0.4193460510
H          2.3101751385       -0.6875799956       -1.9347069710
H          3.2386796912       -2.1729983557       -1.6920267283

