%chk=PB_R_C_5_647_ox
%nproc=32
%mem=100gb
# opt freq m062x/def2tzvp pop=(full,nbo)

Title Card Required

 0 1
P          0.0600792035       -0.0553820914       -0.3656518022
O          1.3696380106       -0.0055632925        0.5491072432
O         -0.9017271575        0.9085630308        0.4775217888
N         -0.5363594011       -1.5882754643       -0.0818651964
O          0.2196950130        0.2804829411       -1.7860915303
C          2.4370659333        0.9434493316        0.4009788724
C         -2.1215288773        1.4560936471       -0.0400200735
C          3.2544956729        0.8286894151        1.6888579141
C          1.8814234450        2.3531668558        0.2384824574
C          3.2797302034        0.5600058787       -0.8139315993
C         -1.7946240962        2.6332663932       -0.9569936953
C         -2.9015210049        1.9277265832        1.1892050734
C         -2.9111008073        0.3989618616       -0.8035610496
H          4.1165831690        1.4884119819        1.6450556442
H          3.5960284272       -0.1948266273        1.8201751568
H          2.6402658003        1.0995773545        2.5435980806
H          1.3079144984        2.4082378379       -0.6828491110
H          2.6933812887        3.0754442389        0.2001755792
H          1.2276582325        2.5912789636        1.0742676431
H          2.6483878638        0.5484945122       -1.6978798933
H          3.7082151969       -0.4302969035       -0.6753593875
H          4.0847859525        1.2763488015       -0.9552993014
H         -2.7100627155        3.0795665812       -1.3364522506
H         -1.1955821440        2.2805298914       -1.7913922522
H         -1.2314212677        3.3872376717       -0.4120631689
H         -3.1166726387        1.0837499101        1.8396519107
H         -3.8363549061        2.3900012539        0.8851324152
H         -2.3123564393        2.6512425864        1.7466851712
H         -3.8430706766        0.8219168071       -1.1705829039
H         -3.1323260479       -0.4447643264       -0.1552410316
H         -2.3206257061        0.0457198722       -1.6443151774
C         -0.6179258754       -2.0068390436        1.3046739347
C         -0.2108072053       -2.5867266120       -1.0785768295
H          0.2814952972       -2.5526290979        1.6131006526
C         -1.8520237765       -2.8629909068        1.5742922696
H         -0.6702978990       -1.0923663397        1.8979456751
H         -0.3237732735       -2.0928362464       -2.0454155997
H         -0.9427834872       -3.3972273356       -1.0153514014
C          1.2067791440       -3.1407654605       -0.9702402908
H         -1.9412871493       -3.0494949316        2.6417263804
H         -1.7847938013       -3.8207487480        1.0647427295
H         -2.7494804602       -2.3536020262        1.2323179755
H          1.4070205113       -3.8133364528       -1.8007215531
H          1.3479436266       -3.6882945676       -0.0410523057
H          1.9149476522       -2.3164069586       -1.0042844997

